1600 3120
1 2 2
1 41 3
2 3 1
2 42 1
3 4 3
3 43 5
4 5 3
4 44 5
5 6 5
5 45 1
6 7 2
6 46 2
7 8 4
7 47 1
8 9 4
8 48 5
9 10 5
9 49 1
10 11 1
10 50 3
11 12 3
11 51 3
12 13 3
12 52 4
13 14 5
13 53 4
14 15 1
14 54 1
15 16 2
15 55 4
16 17 3
16 56 5
17 18 5
17 57 3
18 19 3
18 58 4
19 20 4
19 59 1
20 21 3
20 60 5
21 22 1
21 61 2
22 23 4
22 62 5
23 24 2
23 63 4
24 25 5
24 64 1
25 26 2
25 65 3
26 27 5
26 66 3
27 28 3
27 67 5
28 29 2
28 68 2
29 30 1
29 69 2
30 31 1
30 70 1
31 32 4
31 71 5
32 33 4
32 72 1
33 34 1
33 73 1
34 35 5
34 74 2
35 36 2
35 75 3
36 37 2
36 76 2
37 38 1
37 77 2
38 39 3
38 78 3
39 40 1
39 79 3
40 80 3
41 42 3
41 81 1
42 43 2
42 82 2
43 44 5
43 83 5
44 45 5
44 84 5
45 46 2
45 85 1
46 47 3
46 86 4
47 48 5
47 87 5
48 49 5
48 88 1
49 50 3
49 89 1
50 51 2
50 90 3
51 52 4
51 91 1
52 53 1
52 92 1
53 54 5
53 93 5
54 55 1
54 94 1
55 56 3
55 95 1
56 57 2
56 96 1
57 58 2
57 97 4
58 59 3
58 98 1
59 60 3
59 99 4
60 61 4
60 100 4
61 62 4
61 101 5
62 63 5
62 102 1
63 64 1
63 103 4
64 65 3
64 104 3
65 66 1
65 105 4
66 67 1
66 106 1
67 68 5
67 107 1
68 69 4
68 108 2
69 70 4
69 109 4
70 71 4
70 110 5
71 72 3
71 111 2
72 73 5
72 112 4
73 74 4
73 113 1
74 75 5
74 114 2
75 76 4
75 115 4
76 77 1
76 116 4
77 78 3
77 117 2
78 79 4
78 118 1
79 80 2
79 119 4
80 120 2
81 82 1
81 121 1
82 83 2
82 122 5
83 84 1
83 123 4
84 85 3
84 124 3
85 86 5
85 125 2
86 87 3
86 126 3
87 88 3
87 127 4
88 89 5
88 128 2
89 90 5
89 129 2
90 91 1
90 130 5
91 92 2
91 131 5
92 93 5
92 132 4
93 94 5
93 133 1
94 95 3
94 134 1
95 96 5
95 135 1
96 97 3
96 136 5
97 98 5
97 137 2
98 99 3
98 138 5
99 100 4
99 139 5
100 101 2
100 140 2
101 102 3
101 141 1
102 103 1
102 142 1
103 104 5
103 143 4
104 105 3
104 144 2
105 106 2
105 145 1
106 107 4
106 146 4
107 108 3
107 147 1
108 109 5
108 148 3
109 110 1
109 149 5
110 111 4
110 150 5
111 112 1
111 151 1
112 113 2
112 152 5
113 114 1
113 153 5
114 115 5
114 154 2
115 116 4
115 155 4
116 117 3
116 156 5
117 118 2
117 157 4
118 119 5
118 158 5
119 120 2
119 159 1
120 160 4
121 122 2
121 161 5
122 123 4
122 162 3
123 124 5
123 163 1
124 125 4
124 164 4
125 126 4
125 165 5
126 127 1
126 166 2
127 128 2
127 167 5
128 129 5
128 168 1
129 130 2
129 169 5
130 131 4
130 170 4
131 132 4
131 171 3
132 133 5
132 172 4
133 134 2
133 173 5
134 135 2
134 174 5
135 136 2
135 175 4
136 137 5
136 176 3
137 138 1
137 177 1
138 139 3
138 178 5
139 140 5
139 179 3
140 141 3
140 180 2
141 142 3
141 181 1
142 143 1
142 182 1
143 144 4
143 183 4
144 145 3
144 184 3
145 146 5
145 185 1
146 147 2
146 186 3
147 148 5
147 187 3
148 149 2
148 188 2
149 150 3
149 189 1
150 151 1
150 190 5
151 152 4
151 191 3
152 153 1
152 192 2
153 154 2
153 193 5
154 155 5
154 194 2
155 156 2
155 195 2
156 157 5
156 196 4
157 158 3
157 197 1
158 159 2
158 198 5
159 160 2
159 199 5
160 200 2
161 162 1
161 201 1
162 163 2
162 202 2
163 164 4
163 203 4
164 165 3
164 204 4
165 166 2
165 205 2
166 167 4
166 206 1
167 168 1
167 207 1
168 169 2
168 208 3
169 170 5
169 209 3
170 171 4
170 210 4
171 172 4
171 211 4
172 173 2
172 212 2
173 174 3
173 213 5
174 175 5
174 214 5
175 176 1
175 215 5
176 177 5
176 216 4
177 178 4
177 217 5
178 179 5
178 218 1
179 180 5
179 219 2
180 181 5
180 220 2
181 182 2
181 221 2
182 183 5
182 222 2
183 184 1
183 223 5
184 185 1
184 224 1
185 186 4
185 225 4
186 187 3
186 226 4
187 188 2
187 227 3
188 189 4
188 228 2
189 190 4
189 229 1
190 191 3
190 230 1
191 192 5
191 231 1
192 193 1
192 232 3
193 194 4
193 233 2
194 195 4
194 234 4
195 196 3
195 235 1
196 197 4
196 236 2
197 198 2
197 237 4
198 199 2
198 238 3
199 200 3
199 239 3
200 240 3
201 202 2
201 241 3
202 203 4
202 242 1
203 204 5
203 243 1
204 205 3
204 244 3
205 206 5
205 245 4
206 207 4
206 246 3
207 208 4
207 247 2
208 209 4
208 248 2
209 210 4
209 249 5
210 211 2
210 250 3
211 212 3
211 251 3
212 213 4
212 252 3
213 214 3
213 253 2
214 215 2
214 254 4
215 216 5
215 255 3
216 217 5
216 256 5
217 218 1
217 257 2
218 219 2
218 258 5
219 220 2
219 259 4
220 221 2
220 260 1
221 222 4
221 261 4
222 223 2
222 262 2
223 224 3
223 263 3
224 225 3
224 264 5
225 226 2
225 265 1
226 227 3
226 266 2
227 228 4
227 267 5
228 229 1
228 268 5
229 230 2
229 269 1
230 231 1
230 270 2
231 232 4
231 271 5
232 233 5
232 272 4
233 234 3
233 273 4
234 235 5
234 274 4
235 236 3
235 275 4
236 237 2
236 276 2
237 238 2
237 277 3
238 239 5
238 278 4
239 240 3
239 279 1
240 280 3
241 242 5
241 281 1
242 243 4
242 282 4
243 244 3
243 283 1
244 245 2
244 284 4
245 246 3
245 285 4
246 247 4
246 286 3
247 248 3
247 287 4
248 249 4
248 288 3
249 250 2
249 289 3
250 251 4
250 290 5
251 252 4
251 291 1
252 253 1
252 292 4
253 254 2
253 293 2
254 255 4
254 294 3
255 256 4
255 295 4
256 257 3
256 296 3
257 258 3
257 297 5
258 259 5
258 298 1
259 260 5
259 299 1
260 261 5
260 300 2
261 262 1
261 301 4
262 263 3
262 302 2
263 264 4
263 303 2
264 265 1
264 304 2
265 266 3
265 305 1
266 267 3
266 306 1
267 268 3
267 307 5
268 269 5
268 308 3
269 270 2
269 309 2
270 271 1
270 310 3
271 272 5
271 311 4
272 273 3
272 312 3
273 274 1
273 313 5
274 275 2
274 314 3
275 276 1
275 315 4
276 277 4
276 316 1
277 278 1
277 317 2
278 279 1
278 318 5
279 280 4
279 319 1
280 320 4
281 282 1
281 321 5
282 283 2
282 322 3
283 284 5
283 323 5
284 285 3
284 324 1
285 286 2
285 325 3
286 287 4
286 326 4
287 288 4
287 327 2
288 289 5
288 328 4
289 290 5
289 329 4
290 291 1
290 330 5
291 292 1
291 331 1
292 293 1
292 332 1
293 294 3
293 333 2
294 295 2
294 334 1
295 296 5
295 335 2
296 297 5
296 336 2
297 298 3
297 337 2
298 299 2
298 338 2
299 300 2
299 339 4
300 301 4
300 340 4
301 302 3
301 341 2
302 303 3
302 342 4
303 304 1
303 343 1
304 305 1
304 344 5
305 306 5
305 345 1
306 307 4
306 346 5
307 308 1
307 347 3
308 309 4
308 348 5
309 310 2
309 349 1
310 311 3
310 350 3
311 312 1
311 351 2
312 313 3
312 352 1
313 314 1
313 353 2
314 315 1
314 354 3
315 316 4
315 355 2
316 317 5
316 356 4
317 318 2
317 357 5
318 319 3
318 358 1
319 320 5
319 359 1
320 360 1
321 322 4
321 361 5
322 323 3
322 362 4
323 324 4
323 363 1
324 325 1
324 364 4
325 326 5
325 365 3
326 327 4
326 366 2
327 328 1
327 367 5
328 329 2
328 368 5
329 330 5
329 369 4
330 331 3
330 370 2
331 332 2
331 371 2
332 333 3
332 372 4
333 334 2
333 373 4
334 335 3
334 374 3
335 336 5
335 375 1
336 337 3
336 376 3
337 338 4
337 377 1
338 339 4
338 378 3
339 340 4
339 379 2
340 341 4
340 380 5
341 342 5
341 381 4
342 343 2
342 382 2
343 344 5
343 383 2
344 345 5
344 384 5
345 346 3
345 385 4
346 347 4
346 386 3
347 348 3
347 387 5
348 349 1
348 388 3
349 350 4
349 389 2
350 351 4
350 390 1
351 352 5
351 391 4
352 353 4
352 392 5
353 354 3
353 393 2
354 355 4
354 394 1
355 356 5
355 395 2
356 357 1
356 396 4
357 358 3
357 397 3
358 359 3
358 398 2
359 360 4
359 399 3
360 400 3
361 362 2
361 401 4
362 363 1
362 402 1
363 364 5
363 403 3
364 365 4
364 404 3
365 366 3
365 405 3
366 367 1
366 406 4
367 368 1
367 407 2
368 369 5
368 408 3
369 370 1
369 409 1
370 371 3
370 410 1
371 372 5
371 411 5
372 373 3
372 412 3
373 374 2
373 413 1
374 375 5
374 414 5
375 376 5
375 415 1
376 377 3
376 416 3
377 378 4
377 417 4
378 379 3
378 418 2
379 380 2
379 419 1
380 381 4
380 420 4
381 382 2
381 421 3
382 383 1
382 422 3
383 384 3
383 423 2
384 385 2
384 424 4
385 386 2
385 425 2
386 387 3
386 426 4
387 388 4
387 427 5
388 389 2
388 428 5
389 390 1
389 429 1
390 391 5
390 430 5
391 392 3
391 431 4
392 393 4
392 432 5
393 394 3
393 433 2
394 395 3
394 434 3
395 396 3
395 435 5
396 397 1
396 436 1
397 398 5
397 437 4
398 399 4
398 438 1
399 400 4
399 439 2
400 440 3
401 402 5
401 441 2
402 403 5
402 442 4
403 404 5
403 443 2
404 405 1
404 444 2
405 406 3
405 445 1
406 407 2
406 446 1
407 408 2
407 447 5
408 409 1
408 448 5
409 410 4
409 449 2
410 411 5
410 450 4
411 412 2
411 451 2
412 413 4
412 452 2
413 414 4
413 453 3
414 415 5
414 454 5
415 416 4
415 455 4
416 417 4
416 456 4
417 418 5
417 457 4
418 419 3
418 458 2
419 420 5
419 459 5
420 421 1
420 460 3
421 422 3
421 461 2
422 423 3
422 462 3
423 424 3
423 463 3
424 425 5
424 464 2
425 426 3
425 465 2
426 427 2
426 466 5
427 428 2
427 467 2
428 429 5
428 468 4
429 430 2
429 469 4
430 431 5
430 470 4
431 432 3
431 471 3
432 433 2
432 472 4
433 434 3
433 473 1
434 435 1
434 474 3
435 436 5
435 475 4
436 437 4
436 476 3
437 438 2
437 477 1
438 439 1
438 478 2
439 440 5
439 479 2
440 480 2
441 442 4
441 481 4
442 443 5
442 482 5
443 444 5
443 483 3
444 445 3
444 484 2
445 446 1
445 485 2
446 447 5
446 486 4
447 448 5
447 487 3
448 449 2
448 488 3
449 450 4
449 489 1
450 451 5
450 490 5
451 452 3
451 491 2
452 453 3
452 492 1
453 454 1
453 493 5
454 455 3
454 494 2
455 456 2
455 495 2
456 457 2
456 496 1
457 458 4
457 497 4
458 459 5
458 498 2
459 460 3
459 499 5
460 461 1
460 500 1
461 462 3
461 501 2
462 463 3
462 502 4
463 464 4
463 503 1
464 465 1
464 504 2
465 466 4
465 505 3
466 467 4
466 506 3
467 468 2
467 507 2
468 469 4
468 508 4
469 470 3
469 509 2
470 471 2
470 510 5
471 472 3
471 511 4
472 473 5
472 512 5
473 474 5
473 513 5
474 475 5
474 514 1
475 476 1
475 515 5
476 477 2
476 516 1
477 478 3
477 517 3
478 479 4
478 518 1
479 480 2
479 519 2
480 520 5
481 482 1
481 521 5
482 483 5
482 522 5
483 484 4
483 523 4
484 485 4
484 524 5
485 486 2
485 525 5
486 487 2
486 526 3
487 488 1
487 527 5
488 489 4
488 528 2
489 490 5
489 529 1
490 491 1
490 530 5
491 492 2
491 531 5
492 493 4
492 532 3
493 494 2
493 533 3
494 495 3
494 534 1
495 496 2
495 535 4
496 497 4
496 536 4
497 498 1
497 537 4
498 499 3
498 538 5
499 500 1
499 539 5
500 501 2
500 540 5
501 502 5
501 541 4
502 503 5
502 542 4
503 504 1
503 543 2
504 505 2
504 544 2
505 506 5
505 545 2
506 507 1
506 546 4
507 508 2
507 547 3
508 509 5
508 548 3
509 510 3
509 549 5
510 511 3
510 550 2
511 512 4
511 551 4
512 513 4
512 552 2
513 514 4
513 553 4
514 515 1
514 554 5
515 516 4
515 555 1
516 517 3
516 556 3
517 518 1
517 557 4
518 519 2
518 558 3
519 520 1
519 559 2
520 560 1
521 522 4
521 561 2
522 523 4
522 562 5
523 524 2
523 563 4
524 525 2
524 564 2
525 526 2
525 565 4
526 527 1
526 566 5
527 528 3
527 567 5
528 529 5
528 568 3
529 530 4
529 569 5
530 531 2
530 570 3
531 532 4
531 571 1
532 533 1
532 572 4
533 534 2
533 573 3
534 535 5
534 574 3
535 536 4
535 575 1
536 537 5
536 576 4
537 538 2
537 577 4
538 539 5
538 578 4
539 540 4
539 579 2
540 541 1
540 580 1
541 542 1
541 581 5
542 543 4
542 582 3
543 544 5
543 583 5
544 545 3
544 584 3
545 546 3
545 585 4
546 547 1
546 586 3
547 548 3
547 587 5
548 549 3
548 588 2
549 550 3
549 589 4
550 551 1
550 590 2
551 552 4
551 591 3
552 553 3
552 592 3
553 554 2
553 593 4
554 555 4
554 594 2
555 556 1
555 595 1
556 557 1
556 596 2
557 558 3
557 597 4
558 559 2
558 598 2
559 560 2
559 599 5
560 600 2
561 562 3
561 601 3
562 563 5
562 602 3
563 564 2
563 603 4
564 565 2
564 604 2
565 566 2
565 605 3
566 567 4
566 606 5
567 568 5
567 607 4
568 569 5
568 608 5
569 570 2
569 609 4
570 571 3
570 610 1
571 572 1
571 611 3
572 573 1
572 612 1
573 574 3
573 613 1
574 575 2
574 614 5
575 576 2
575 615 5
576 577 3
576 616 2
577 578 3
577 617 2
578 579 1
578 618 1
579 580 1
579 619 3
580 581 2
580 620 1
581 582 2
581 621 2
582 583 1
582 622 3
583 584 4
583 623 3
584 585 3
584 624 4
585 586 3
585 625 5
586 587 3
586 626 2
587 588 4
587 627 4
588 589 3
588 628 3
589 590 5
589 629 1
590 591 4
590 630 3
591 592 2
591 631 2
592 593 5
592 632 5
593 594 4
593 633 2
594 595 4
594 634 3
595 596 4
595 635 1
596 597 5
596 636 1
597 598 3
597 637 2
598 599 5
598 638 3
599 600 1
599 639 4
600 640 2
601 602 2
601 641 5
602 603 1
602 642 5
603 604 5
603 643 4
604 605 5
604 644 5
605 606 2
605 645 5
606 607 2
606 646 3
607 608 2
607 647 1
608 609 2
608 648 1
609 610 4
609 649 3
610 611 1
610 650 3
611 612 5
611 651 3
612 613 5
612 652 5
613 614 2
613 653 4
614 615 5
614 654 1
615 616 3
615 655 3
616 617 3
616 656 3
617 618 2
617 657 3
618 619 5
618 658 3
619 620 4
619 659 4
620 621 5
620 660 5
621 622 3
621 661 2
622 623 3
622 662 4
623 624 2
623 663 4
624 625 5
624 664 4
625 626 4
625 665 4
626 627 3
626 666 1
627 628 1
627 667 2
628 629 5
628 668 1
629 630 3
629 669 1
630 631 1
630 670 1
631 632 5
631 671 1
632 633 2
632 672 3
633 634 2
633 673 1
634 635 4
634 674 2
635 636 4
635 675 3
636 637 2
636 676 3
637 638 2
637 677 2
638 639 3
638 678 1
639 640 3
639 679 5
640 680 3
641 642 3
641 681 5
642 643 1
642 682 3
643 644 2
643 683 4
644 645 2
644 684 5
645 646 4
645 685 5
646 647 3
646 686 1
647 648 4
647 687 5
648 649 4
648 688 1
649 650 2
649 689 1
650 651 4
650 690 2
651 652 2
651 691 1
652 653 5
652 692 4
653 654 2
653 693 2
654 655 1
654 694 4
655 656 1
655 695 3
656 657 1
656 696 3
657 658 5
657 697 1
658 659 4
658 698 4
659 660 3
659 699 1
660 661 3
660 700 1
661 662 2
661 701 4
662 663 2
662 702 1
663 664 4
663 703 3
664 665 2
664 704 3
665 666 1
665 705 2
666 667 3
666 706 1
667 668 3
667 707 5
668 669 5
668 708 5
669 670 1
669 709 3
670 671 2
670 710 5
671 672 4
671 711 2
672 673 5
672 712 3
673 674 3
673 713 1
674 675 3
674 714 1
675 676 5
675 715 4
676 677 2
676 716 3
677 678 2
677 717 5
678 679 5
678 718 5
679 680 3
679 719 2
680 720 3
681 682 2
681 721 1
682 683 1
682 722 5
683 684 3
683 723 5
684 685 1
684 724 4
685 686 2
685 725 1
686 687 3
686 726 4
687 688 5
687 727 4
688 689 1
688 728 5
689 690 2
689 729 1
690 691 5
690 730 5
691 692 1
691 731 2
692 693 3
692 732 2
693 694 5
693 733 1
694 695 3
694 734 1
695 696 2
695 735 1
696 697 4
696 736 5
697 698 1
697 737 3
698 699 4
698 738 1
699 700 3
699 739 4
700 701 3
700 740 2
701 702 5
701 741 2
702 703 4
702 742 2
703 704 5
703 743 2
704 705 4
704 744 3
705 706 2
705 745 5
706 707 5
706 746 2
707 708 1
707 747 5
708 709 5
708 748 4
709 710 5
709 749 3
710 711 1
710 750 2
711 712 5
711 751 3
712 713 2
712 752 2
713 714 4
713 753 1
714 715 2
714 754 5
715 716 4
715 755 3
716 717 2
716 756 1
717 718 4
717 757 4
718 719 2
718 758 1
719 720 1
719 759 3
720 760 2
721 722 2
721 761 2
722 723 5
722 762 4
723 724 1
723 763 2
724 725 1
724 764 5
725 726 5
725 765 2
726 727 3
726 766 1
727 728 3
727 767 2
728 729 3
728 768 3
729 730 3
729 769 4
730 731 4
730 770 5
731 732 2
731 771 1
732 733 1
732 772 2
733 734 5
733 773 4
734 735 3
734 774 4
735 736 5
735 775 5
736 737 5
736 776 2
737 738 3
737 777 3
738 739 4
738 778 5
739 740 3
739 779 5
740 741 5
740 780 5
741 742 4
741 781 2
742 743 1
742 782 5
743 744 3
743 783 1
744 745 1
744 784 1
745 746 1
745 785 1
746 747 3
746 786 1
747 748 4
747 787 3
748 749 5
748 788 4
749 750 4
749 789 5
750 751 1
750 790 3
751 752 1
751 791 1
752 753 3
752 792 2
753 754 3
753 793 3
754 755 2
754 794 3
755 756 1
755 795 3
756 757 2
756 796 5
757 758 1
757 797 1
758 759 2
758 798 5
759 760 4
759 799 5
760 800 3
761 762 2
761 801 2
762 763 1
762 802 4
763 764 2
763 803 2
764 765 2
764 804 1
765 766 3
765 805 2
766 767 3
766 806 5
767 768 5
767 807 5
768 769 2
768 808 3
769 770 3
769 809 3
770 771 4
770 810 4
771 772 1
771 811 2
772 773 1
772 812 3
773 774 1
773 813 3
774 775 3
774 814 2
775 776 4
775 815 5
776 777 5
776 816 4
777 778 3
777 817 2
778 779 2
778 818 1
779 780 4
779 819 5
780 781 1
780 820 5
781 782 2
781 821 2
782 783 4
782 822 3
783 784 3
783 823 5
784 785 5
784 824 5
785 786 2
785 825 1
786 787 3
786 826 1
787 788 1
787 827 2
788 789 1
788 828 1
789 790 3
789 829 4
790 791 4
790 830 4
791 792 2
791 831 4
792 793 4
792 832 2
793 794 4
793 833 2
794 795 5
794 834 5
795 796 1
795 835 1
796 797 4
796 836 2
797 798 5
797 837 1
798 799 5
798 838 4
799 800 4
799 839 5
800 840 3
801 802 5
801 841 4
802 803 5
802 842 4
803 804 4
803 843 3
804 805 5
804 844 1
805 806 5
805 845 4
806 807 4
806 846 3
807 808 2
807 847 4
808 809 3
808 848 5
809 810 4
809 849 4
810 811 3
810 850 5
811 812 5
811 851 3
812 813 3
812 852 1
813 814 2
813 853 5
814 815 5
814 854 2
815 816 2
815 855 2
816 817 4
816 856 2
817 818 4
817 857 3
818 819 3
818 858 1
819 820 5
819 859 5
820 821 4
820 860 5
821 822 4
821 861 5
822 823 5
822 862 3
823 824 2
823 863 2
824 825 4
824 864 3
825 826 3
825 865 4
826 827 5
826 866 1
827 828 4
827 867 2
828 829 1
828 868 5
829 830 2
829 869 1
830 831 2
830 870 1
831 832 4
831 871 2
832 833 4
832 872 4
833 834 5
833 873 4
834 835 4
834 874 4
835 836 2
835 875 5
836 837 2
836 876 1
837 838 2
837 877 2
838 839 1
838 878 4
839 840 2
839 879 4
840 880 1
841 842 1
841 881 3
842 843 4
842 882 3
843 844 4
843 883 4
844 845 1
844 884 3
845 846 4
845 885 1
846 847 3
846 886 1
847 848 4
847 887 1
848 849 5
848 888 5
849 850 5
849 889 2
850 851 1
850 890 1
851 852 2
851 891 1
852 853 5
852 892 3
853 854 4
853 893 5
854 855 1
854 894 5
855 856 5
855 895 2
856 857 5
856 896 1
857 858 3
857 897 3
858 859 4
858 898 4
859 860 2
859 899 1
860 861 5
860 900 1
861 862 3
861 901 4
862 863 3
862 902 2
863 864 1
863 903 2
864 865 2
864 904 5
865 866 5
865 905 4
866 867 4
866 906 2
867 868 5
867 907 5
868 869 3
868 908 1
869 870 5
869 909 1
870 871 5
870 910 5
871 872 1
871 911 5
872 873 3
872 912 5
873 874 4
873 913 3
874 875 3
874 914 2
875 876 4
875 915 5
876 877 1
876 916 5
877 878 2
877 917 1
878 879 3
878 918 5
879 880 1
879 919 3
880 920 4
881 882 1
881 921 1
882 883 1
882 922 5
883 884 5
883 923 5
884 885 2
884 924 2
885 886 3
885 925 3
886 887 3
886 926 5
887 888 4
887 927 4
888 889 5
888 928 1
889 890 3
889 929 2
890 891 2
890 930 4
891 892 5
891 931 4
892 893 3
892 932 5
893 894 5
893 933 5
894 895 3
894 934 2
895 896 5
895 935 4
896 897 5
896 936 5
897 898 3
897 937 1
898 899 2
898 938 3
899 900 5
899 939 5
900 901 1
900 940 1
901 902 5
901 941 1
902 903 1
902 942 5
903 904 2
903 943 1
904 905 1
904 944 4
905 906 2
905 945 2
906 907 5
906 946 3
907 908 1
907 947 2
908 909 4
908 948 4
909 910 5
909 949 2
910 911 1
910 950 3
911 912 2
911 951 5
912 913 4
912 952 1
913 914 1
913 953 4
914 915 2
914 954 3
915 916 1
915 955 4
916 917 2
916 956 3
917 918 1
917 957 2
918 919 5
918 958 1
919 920 4
919 959 2
920 960 3
921 922 3
921 961 1
922 923 3
922 962 1
923 924 4
923 963 5
924 925 2
924 964 5
925 926 3
925 965 2
926 927 5
926 966 5
927 928 1
927 967 1
928 929 5
928 968 3
929 930 5
929 969 1
930 931 4
930 970 4
931 932 1
931 971 3
932 933 3
932 972 4
933 934 2
933 973 3
934 935 4
934 974 4
935 936 5
935 975 1
936 937 2
936 976 1
937 938 2
937 977 3
938 939 2
938 978 4
939 940 1
939 979 2
940 941 2
940 980 3
941 942 2
941 981 5
942 943 5
942 982 2
943 944 4
943 983 2
944 945 5
944 984 3
945 946 5
945 985 2
946 947 1
946 986 3
947 948 5
947 987 2
948 949 2
948 988 1
949 950 3
949 989 5
950 951 5
950 990 5
951 952 3
951 991 3
952 953 3
952 992 3
953 954 2
953 993 4
954 955 4
954 994 4
955 956 3
955 995 4
956 957 3
956 996 4
957 958 5
957 997 3
958 959 5
958 998 1
959 960 1
959 999 4
960 1000 5
961 962 1
961 1001 1
962 963 2
962 1002 2
963 964 2
963 1003 2
964 965 1
964 1004 1
965 966 2
965 1005 5
966 967 1
966 1006 5
967 968 5
967 1007 2
968 969 1
968 1008 2
969 970 3
969 1009 2
970 971 5
970 1010 4
971 972 1
971 1011 2
972 973 1
972 1012 4
973 974 5
973 1013 3
974 975 3
974 1014 5
975 976 4
975 1015 3
976 977 1
976 1016 5
977 978 2
977 1017 2
978 979 5
978 1018 2
979 980 2
979 1019 3
980 981 2
980 1020 4
981 982 2
981 1021 4
982 983 4
982 1022 4
983 984 3
983 1023 5
984 985 1
984 1024 2
985 986 1
985 1025 2
986 987 1
986 1026 1
987 988 4
987 1027 5
988 989 3
988 1028 1
989 990 4
989 1029 1
990 991 4
990 1030 3
991 992 2
991 1031 5
992 993 5
992 1032 5
993 994 3
993 1033 1
994 995 1
994 1034 2
995 996 3
995 1035 1
996 997 2
996 1036 2
997 998 5
997 1037 5
998 999 2
998 1038 4
999 1000 1
999 1039 3
1000 1040 2
1001 1002 1
1001 1041 5
1002 1003 3
1002 1042 5
1003 1004 3
1003 1043 1
1004 1005 2
1004 1044 3
1005 1006 5
1005 1045 3
1006 1007 4
1006 1046 5
1007 1008 1
1007 1047 5
1008 1009 4
1008 1048 4
1009 1010 3
1009 1049 5
1010 1011 4
1010 1050 3
1011 1012 4
1011 1051 5
1012 1013 5
1012 1052 2
1013 1014 2
1013 1053 4
1014 1015 1
1014 1054 3
1015 1016 3
1015 1055 1
1016 1017 4
1016 1056 4
1017 1018 5
1017 1057 4
1018 1019 2
1018 1058 3
1019 1020 3
1019 1059 3
1020 1021 3
1020 1060 2
1021 1022 5
1021 1061 1
1022 1023 5
1022 1062 3
1023 1024 5
1023 1063 4
1024 1025 2
1024 1064 3
1025 1026 3
1025 1065 4
1026 1027 3
1026 1066 3
1027 1028 2
1027 1067 2
1028 1029 5
1028 1068 2
1029 1030 5
1029 1069 2
1030 1031 4
1030 1070 5
1031 1032 1
1031 1071 3
1032 1033 5
1032 1072 4
1033 1034 3
1033 1073 3
1034 1035 5
1034 1074 3
1035 1036 5
1035 1075 3
1036 1037 1
1036 1076 5
1037 1038 3
1037 1077 3
1038 1039 3
1038 1078 1
1039 1040 4
1039 1079 4
1040 1080 1
1041 1042 5
1041 1081 3
1042 1043 4
1042 1082 2
1043 1044 1
1043 1083 1
1044 1045 5
1044 1084 4
1045 1046 5
1045 1085 4
1046 1047 2
1046 1086 5
1047 1048 3
1047 1087 4
1048 1049 3
1048 1088 5
1049 1050 1
1049 1089 3
1050 1051 2
1050 1090 3
1051 1052 3
1051 1091 4
1052 1053 2
1052 1092 5
1053 1054 5
1053 1093 3
1054 1055 2
1054 1094 4
1055 1056 5
1055 1095 3
1056 1057 4
1056 1096 1
1057 1058 1
1057 1097 5
1058 1059 4
1058 1098 4
1059 1060 1
1059 1099 5
1060 1061 5
1060 1100 2
1061 1062 4
1061 1101 2
1062 1063 3
1062 1102 3
1063 1064 1
1063 1103 2
1064 1065 3
1064 1104 3
1065 1066 5
1065 1105 4
1066 1067 1
1066 1106 4
1067 1068 5
1067 1107 1
1068 1069 1
1068 1108 1
1069 1070 2
1069 1109 4
1070 1071 2
1070 1110 5
1071 1072 4
1071 1111 4
1072 1073 1
1072 1112 3
1073 1074 3
1073 1113 4
1074 1075 2
1074 1114 3
1075 1076 4
1075 1115 5
1076 1077 3
1076 1116 5
1077 1078 3
1077 1117 3
1078 1079 3
1078 1118 5
1079 1080 5
1079 1119 3
1080 1120 3
1081 1082 4
1081 1121 2
1082 1083 2
1082 1122 5
1083 1084 4
1083 1123 1
1084 1085 4
1084 1124 3
1085 1086 1
1085 1125 5
1086 1087 4
1086 1126 3
1087 1088 5
1087 1127 3
1088 1089 3
1088 1128 4
1089 1090 1
1089 1129 5
1090 1091 2
1090 1130 3
1091 1092 3
1091 1131 5
1092 1093 5
1092 1132 1
1093 1094 4
1093 1133 1
1094 1095 1
1094 1134 3
1095 1096 4
1095 1135 4
1096 1097 1
1096 1136 1
1097 1098 1
1097 1137 3
1098 1099 2
1098 1138 2
1099 1100 2
1099 1139 3
1100 1101 1
1100 1140 5
1101 1102 2
1101 1141 5
1102 1103 2
1102 1142 5
1103 1104 5
1103 1143 2
1104 1105 3
1104 1144 4
1105 1106 1
1105 1145 4
1106 1107 1
1106 1146 5
1107 1108 3
1107 1147 3
1108 1109 4
1108 1148 3
1109 1110 4
1109 1149 3
1110 1111 2
1110 1150 2
1111 1112 3
1111 1151 2
1112 1113 2
1112 1152 1
1113 1114 1
1113 1153 4
1114 1115 1
1114 1154 2
1115 1116 1
1115 1155 5
1116 1117 2
1116 1156 1
1117 1118 5
1117 1157 4
1118 1119 2
1118 1158 4
1119 1120 1
1119 1159 4
1120 1160 5
1121 1122 5
1121 1161 1
1122 1123 3
1122 1162 4
1123 1124 2
1123 1163 3
1124 1125 4
1124 1164 5
1125 1126 3
1125 1165 4
1126 1127 3
1126 1166 2
1127 1128 2
1127 1167 4
1128 1129 2
1128 1168 4
1129 1130 4
1129 1169 2
1130 1131 4
1130 1170 2
1131 1132 2
1131 1171 5
1132 1133 3
1132 1172 5
1133 1134 3
1133 1173 5
1134 1135 2
1134 1174 2
1135 1136 3
1135 1175 4
1136 1137 5
1136 1176 5
1137 1138 3
1137 1177 4
1138 1139 5
1138 1178 2
1139 1140 1
1139 1179 5
1140 1141 3
1140 1180 2
1141 1142 1
1141 1181 2
1142 1143 5
1142 1182 3
1143 1144 1
1143 1183 3
1144 1145 2
1144 1184 3
1145 1146 2
1145 1185 3
1146 1147 5
1146 1186 5
1147 1148 4
1147 1187 2
1148 1149 1
1148 1188 4
1149 1150 5
1149 1189 5
1150 1151 4
1150 1190 1
1151 1152 3
1151 1191 3
1152 1153 4
1152 1192 4
1153 1154 1
1153 1193 3
1154 1155 1
1154 1194 3
1155 1156 1
1155 1195 2
1156 1157 4
1156 1196 2
1157 1158 2
1157 1197 1
1158 1159 2
1158 1198 2
1159 1160 2
1159 1199 2
1160 1200 2
1161 1162 3
1161 1201 5
1162 1163 3
1162 1202 3
1163 1164 1
1163 1203 1
1164 1165 4
1164 1204 3
1165 1166 3
1165 1205 2
1166 1167 2
1166 1206 5
1167 1168 2
1167 1207 4
1168 1169 5
1168 1208 3
1169 1170 3
1169 1209 4
1170 1171 5
1170 1210 3
1171 1172 2
1171 1211 4
1172 1173 4
1172 1212 5
1173 1174 5
1173 1213 3
1174 1175 2
1174 1214 4
1175 1176 5
1175 1215 4
1176 1177 1
1176 1216 5
1177 1178 4
1177 1217 2
1178 1179 1
1178 1218 2
1179 1180 3
1179 1219 4
1180 1181 3
1180 1220 4
1181 1182 3
1181 1221 1
1182 1183 3
1182 1222 2
1183 1184 3
1183 1223 1
1184 1185 3
1184 1224 1
1185 1186 1
1185 1225 1
1186 1187 1
1186 1226 4
1187 1188 4
1187 1227 3
1188 1189 4
1188 1228 5
1189 1190 5
1189 1229 1
1190 1191 1
1190 1230 5
1191 1192 4
1191 1231 1
1192 1193 2
1192 1232 4
1193 1194 2
1193 1233 4
1194 1195 1
1194 1234 4
1195 1196 1
1195 1235 2
1196 1197 3
1196 1236 1
1197 1198 3
1197 1237 3
1198 1199 2
1198 1238 4
1199 1200 2
1199 1239 3
1200 1240 5
1201 1202 4
1201 1241 1
1202 1203 1
1202 1242 5
1203 1204 1
1203 1243 5
1204 1205 4
1204 1244 5
1205 1206 2
1205 1245 1
1206 1207 5
1206 1246 3
1207 1208 3
1207 1247 1
1208 1209 4
1208 1248 5
1209 1210 1
1209 1249 2
1210 1211 5
1210 1250 2
1211 1212 3
1211 1251 1
1212 1213 3
1212 1252 1
1213 1214 5
1213 1253 1
1214 1215 3
1214 1254 5
1215 1216 4
1215 1255 5
1216 1217 2
1216 1256 4
1217 1218 5
1217 1257 2
1218 1219 3
1218 1258 4
1219 1220 4
1219 1259 2
1220 1221 1
1220 1260 3
1221 1222 4
1221 1261 3
1222 1223 2
1222 1262 1
1223 1224 2
1223 1263 1
1224 1225 3
1224 1264 5
1225 1226 1
1225 1265 2
1226 1227 2
1226 1266 2
1227 1228 4
1227 1267 3
1228 1229 1
1228 1268 3
1229 1230 2
1229 1269 5
1230 1231 1
1230 1270 1
1231 1232 5
1231 1271 1
1232 1233 5
1232 1272 5
1233 1234 1
1233 1273 2
1234 1235 4
1234 1274 4
1235 1236 3
1235 1275 3
1236 1237 1
1236 1276 1
1237 1238 4
1237 1277 4
1238 1239 5
1238 1278 5
1239 1240 4
1239 1279 4
1240 1280 2
1241 1242 2
1241 1281 3
1242 1243 1
1242 1282 1
1243 1244 5
1243 1283 5
1244 1245 3
1244 1284 5
1245 1246 3
1245 1285 4
1246 1247 4
1246 1286 2
1247 1248 4
1247 1287 2
1248 1249 2
1248 1288 5
1249 1250 3
1249 1289 4
1250 1251 5
1250 1290 2
1251 1252 3
1251 1291 2
1252 1253 4
1252 1292 3
1253 1254 5
1253 1293 5
1254 1255 2
1254 1294 4
1255 1256 3
1255 1295 2
1256 1257 5
1256 1296 5
1257 1258 3
1257 1297 5
1258 1259 2
1258 1298 5
1259 1260 4
1259 1299 1
1260 1261 5
1260 1300 3
1261 1262 2
1261 1301 5
1262 1263 2
1262 1302 2
1263 1264 2
1263 1303 2
1264 1265 1
1264 1304 1
1265 1266 2
1265 1305 1
1266 1267 5
1266 1306 4
1267 1268 3
1267 1307 4
1268 1269 2
1268 1308 1
1269 1270 3
1269 1309 5
1270 1271 3
1270 1310 2
1271 1272 1
1271 1311 4
1272 1273 3
1272 1312 3
1273 1274 4
1273 1313 2
1274 1275 2
1274 1314 5
1275 1276 5
1275 1315 3
1276 1277 2
1276 1316 3
1277 1278 1
1277 1317 4
1278 1279 2
1278 1318 4
1279 1280 2
1279 1319 1
1280 1320 4
1281 1282 3
1281 1321 1
1282 1283 3
1282 1322 1
1283 1284 1
1283 1323 5
1284 1285 5
1284 1324 3
1285 1286 4
1285 1325 3
1286 1287 3
1286 1326 5
1287 1288 4
1287 1327 5
1288 1289 1
1288 1328 2
1289 1290 5
1289 1329 5
1290 1291 1
1290 1330 4
1291 1292 1
1291 1331 5
1292 1293 3
1292 1332 5
1293 1294 1
1293 1333 2
1294 1295 5
1294 1334 5
1295 1296 1
1295 1335 3
1296 1297 1
1296 1336 3
1297 1298 2
1297 1337 4
1298 1299 1
1298 1338 5
1299 1300 3
1299 1339 1
1300 1301 2
1300 1340 4
1301 1302 1
1301 1341 3
1302 1303 2
1302 1342 1
1303 1304 3
1303 1343 4
1304 1305 5
1304 1344 2
1305 1306 3
1305 1345 4
1306 1307 2
1306 1346 5
1307 1308 5
1307 1347 3
1308 1309 3
1308 1348 2
1309 1310 1
1309 1349 5
1310 1311 5
1310 1350 5
1311 1312 1
1311 1351 5
1312 1313 2
1312 1352 1
1313 1314 5
1313 1353 4
1314 1315 1
1314 1354 1
1315 1316 1
1315 1355 3
1316 1317 5
1316 1356 1
1317 1318 3
1317 1357 4
1318 1319 5
1318 1358 5
1319 1320 4
1319 1359 4
1320 1360 4
1321 1322 4
1321 1361 3
1322 1323 3
1322 1362 5
1323 1324 3
1323 1363 5
1324 1325 4
1324 1364 3
1325 1326 4
1325 1365 2
1326 1327 4
1326 1366 2
1327 1328 2
1327 1367 2
1328 1329 1
1328 1368 4
1329 1330 2
1329 1369 5
1330 1331 5
1330 1370 1
1331 1332 4
1331 1371 1
1332 1333 5
1332 1372 5
1333 1334 4
1333 1373 5
1334 1335 4
1334 1374 4
1335 1336 3
1335 1375 5
1336 1337 1
1336 1376 5
1337 1338 5
1337 1377 3
1338 1339 4
1338 1378 4
1339 1340 3
1339 1379 2
1340 1341 1
1340 1380 1
1341 1342 2
1341 1381 5
1342 1343 2
1342 1382 4
1343 1344 2
1343 1383 2
1344 1345 1
1344 1384 3
1345 1346 4
1345 1385 5
1346 1347 4
1346 1386 5
1347 1348 1
1347 1387 3
1348 1349 3
1348 1388 4
1349 1350 1
1349 1389 1
1350 1351 5
1350 1390 2
1351 1352 3
1351 1391 1
1352 1353 3
1352 1392 1
1353 1354 3
1353 1393 2
1354 1355 3
1354 1394 5
1355 1356 1
1355 1395 4
1356 1357 5
1356 1396 4
1357 1358 3
1357 1397 2
1358 1359 3
1358 1398 3
1359 1360 2
1359 1399 2
1360 1400 3
1361 1362 1
1361 1401 4
1362 1363 4
1362 1402 3
1363 1364 1
1363 1403 3
1364 1365 3
1364 1404 4
1365 1366 1
1365 1405 5
1366 1367 2
1366 1406 5
1367 1368 2
1367 1407 1
1368 1369 2
1368 1408 3
1369 1370 3
1369 1409 3
1370 1371 1
1370 1410 1
1371 1372 4
1371 1411 3
1372 1373 1
1372 1412 1
1373 1374 1
1373 1413 2
1374 1375 5
1374 1414 4
1375 1376 1
1375 1415 1
1376 1377 5
1376 1416 3
1377 1378 3
1377 1417 5
1378 1379 1
1378 1418 3
1379 1380 1
1379 1419 2
1380 1381 5
1380 1420 5
1381 1382 2
1381 1421 2
1382 1383 3
1382 1422 1
1383 1384 3
1383 1423 3
1384 1385 1
1384 1424 2
1385 1386 4
1385 1425 1
1386 1387 2
1386 1426 2
1387 1388 5
1387 1427 4
1388 1389 3
1388 1428 3
1389 1390 5
1389 1429 2
1390 1391 2
1390 1430 1
1391 1392 5
1391 1431 4
1392 1393 2
1392 1432 4
1393 1394 5
1393 1433 5
1394 1395 3
1394 1434 3
1395 1396 3
1395 1435 4
1396 1397 1
1396 1436 4
1397 1398 3
1397 1437 1
1398 1399 5
1398 1438 5
1399 1400 4
1399 1439 2
1400 1440 1
1401 1402 3
1401 1441 5
1402 1403 2
1402 1442 4
1403 1404 1
1403 1443 2
1404 1405 1
1404 1444 3
1405 1406 2
1405 1445 3
1406 1407 1
1406 1446 4
1407 1408 3
1407 1447 4
1408 1409 5
1408 1448 2
1409 1410 3
1409 1449 5
1410 1411 3
1410 1450 1
1411 1412 4
1411 1451 2
1412 1413 4
1412 1452 2
1413 1414 2
1413 1453 3
1414 1415 4
1414 1454 4
1415 1416 4
1415 1455 3
1416 1417 4
1416 1456 1
1417 1418 1
1417 1457 2
1418 1419 1
1418 1458 5
1419 1420 4
1419 1459 3
1420 1421 1
1420 1460 2
1421 1422 2
1421 1461 4
1422 1423 4
1422 1462 4
1423 1424 5
1423 1463 5
1424 1425 2
1424 1464 2
1425 1426 3
1425 1465 3
1426 1427 5
1426 1466 5
1427 1428 5
1427 1467 4
1428 1429 5
1428 1468 4
1429 1430 1
1429 1469 5
1430 1431 2
1430 1470 2
1431 1432 2
1431 1471 1
1432 1433 5
1432 1472 2
1433 1434 5
1433 1473 1
1434 1435 3
1434 1474 1
1435 1436 1
1435 1475 3
1436 1437 2
1436 1476 1
1437 1438 4
1437 1477 1
1438 1439 4
1438 1478 3
1439 1440 2
1439 1479 1
1440 1480 3
1441 1442 3
1441 1481 1
1442 1443 3
1442 1482 1
1443 1444 5
1443 1483 3
1444 1445 5
1444 1484 2
1445 1446 3
1445 1485 1
1446 1447 4
1446 1486 1
1447 1448 3
1447 1487 2
1448 1449 4
1448 1488 3
1449 1450 2
1449 1489 2
1450 1451 5
1450 1490 4
1451 1452 3
1451 1491 5
1452 1453 4
1452 1492 3
1453 1454 2
1453 1493 1
1454 1455 5
1454 1494 2
1455 1456 5
1455 1495 3
1456 1457 2
1456 1496 5
1457 1458 1
1457 1497 2
1458 1459 4
1458 1498 1
1459 1460 1
1459 1499 4
1460 1461 1
1460 1500 4
1461 1462 2
1461 1501 5
1462 1463 1
1462 1502 5
1463 1464 2
1463 1503 1
1464 1465 4
1464 1504 5
1465 1466 2
1465 1505 4
1466 1467 1
1466 1506 5
1467 1468 5
1467 1507 5
1468 1469 4
1468 1508 3
1469 1470 5
1469 1509 4
1470 1471 4
1470 1510 3
1471 1472 4
1471 1511 2
1472 1473 2
1472 1512 5
1473 1474 3
1473 1513 4
1474 1475 2
1474 1514 3
1475 1476 1
1475 1515 5
1476 1477 5
1476 1516 3
1477 1478 1
1477 1517 4
1478 1479 1
1478 1518 3
1479 1480 3
1479 1519 1
1480 1520 1
1481 1482 3
1481 1521 1
1482 1483 2
1482 1522 4
1483 1484 4
1483 1523 5
1484 1485 3
1484 1524 4
1485 1486 3
1485 1525 1
1486 1487 2
1486 1526 2
1487 1488 3
1487 1527 5
1488 1489 3
1488 1528 2
1489 1490 1
1489 1529 4
1490 1491 3
1490 1530 1
1491 1492 1
1491 1531 4
1492 1493 5
1492 1532 4
1493 1494 4
1493 1533 1
1494 1495 4
1494 1534 4
1495 1496 4
1495 1535 4
1496 1497 3
1496 1536 1
1497 1498 3
1497 1537 2
1498 1499 2
1498 1538 2
1499 1500 5
1499 1539 2
1500 1501 1
1500 1540 2
1501 1502 3
1501 1541 5
1502 1503 2
1502 1542 1
1503 1504 2
1503 1543 2
1504 1505 2
1504 1544 4
1505 1506 2
1505 1545 1
1506 1507 3
1506 1546 1
1507 1508 5
1507 1547 3
1508 1509 3
1508 1548 1
1509 1510 1
1509 1549 1
1510 1511 1
1510 1550 1
1511 1512 5
1511 1551 3
1512 1513 4
1512 1552 3
1513 1514 3
1513 1553 1
1514 1515 3
1514 1554 3
1515 1516 4
1515 1555 2
1516 1517 2
1516 1556 2
1517 1518 2
1517 1557 2
1518 1519 3
1518 1558 5
1519 1520 2
1519 1559 3
1520 1560 3
1521 1522 5
1521 1561 4
1522 1523 2
1522 1562 3
1523 1524 4
1523 1563 2
1524 1525 4
1524 1564 1
1525 1526 4
1525 1565 5
1526 1527 2
1526 1566 1
1527 1528 5
1527 1567 4
1528 1529 3
1528 1568 3
1529 1530 4
1529 1569 5
1530 1531 3
1530 1570 4
1531 1532 1
1531 1571 2
1532 1533 1
1532 1572 3
1533 1534 1
1533 1573 3
1534 1535 3
1534 1574 2
1535 1536 1
1535 1575 2
1536 1537 2
1536 1576 4
1537 1538 4
1537 1577 1
1538 1539 1
1538 1578 1
1539 1540 4
1539 1579 1
1540 1541 2
1540 1580 1
1541 1542 4
1541 1581 2
1542 1543 4
1542 1582 5
1543 1544 4
1543 1583 2
1544 1545 3
1544 1584 3
1545 1546 2
1545 1585 5
1546 1547 3
1546 1586 3
1547 1548 1
1547 1587 1
1548 1549 4
1548 1588 5
1549 1550 2
1549 1589 2
1550 1551 1
1550 1590 5
1551 1552 3
1551 1591 4
1552 1553 1
1552 1592 5
1553 1554 4
1553 1593 2
1554 1555 3
1554 1594 2
1555 1556 1
1555 1595 4
1556 1557 4
1556 1596 2
1557 1558 4
1557 1597 2
1558 1559 1
1558 1598 3
1559 1560 3
1559 1599 2
1560 1600 4
1561 1562 2
1562 1563 1
1563 1564 2
1564 1565 4
1565 1566 5
1566 1567 3
1567 1568 5
1568 1569 5
1569 1570 2
1570 1571 1
1571 1572 3
1572 1573 3
1573 1574 4
1574 1575 3
1575 1576 1
1576 1577 3
1577 1578 2
1578 1579 2
1579 1580 4
1580 1581 5
1581 1582 4
1582 1583 2
1583 1584 1
1584 1585 4
1585 1586 5
1586 1587 5
1587 1588 3
1588 1589 1
1589 1590 3
1590 1591 1
1591 1592 3
1592 1593 4
1593 1594 1
1594 1595 5
1595 1596 4
1596 1597 3
1597 1598 5
1598 1599 5
1599 1600 4
